\ Model k_center_OPT
\ LP format - for model browsing. Use MPS format to capture full model detail.
Minimize
 
Subject To
 R0: y_0 + y_1 + y_2 + y_3 = 1
 R1: x_0,0 + x_1,0 + x_3,0 = 1
 R2: - y_0 + x_0,0 <= 0
 R3: x_0,1 + x_1,1 + x_2,1 = 1
 R4: - y_0 + x_0,1 <= 0
 R5: x_1,2 + x_2,2 + x_3,2 = 1
 R6: - y_0 + x_0,2 <= 0
 R7: x_0,2 = 0
 R8: x_0,3 + x_2,3 + x_3,3 = 1
 R9: - y_0 + x_0,3 <= 0
 R10: y_0 + y_1 + y_2 + y_3 = 1
 R11: x_0,0 + x_1,0 + x_3,0 = 1
 R12: x_1,0 - y_1 <= 0
 R13: x_0,1 + x_1,1 + x_2,1 = 1
 R14: - y_1 + x_1,1 <= 0
 R15: x_1,2 + x_2,2 + x_3,2 = 1
 R16: - y_1 + x_1,2 <= 0
 R17: x_0,3 + x_2,3 + x_3,3 = 1
 R18: - y_1 + x_1,3 <= 0
 R19: x_1,3 = 0
 R20: y_0 + y_1 + y_2 + y_3 = 1
 R21: x_0,0 + x_1,0 + x_3,0 = 1
 R22: x_2,0 - y_2 <= 0
 R23: x_2,0 = 0
 R24: x_0,1 + x_1,1 + x_2,1 = 1
 R25: x_2,1 - y_2 <= 0
 R26: x_1,2 + x_2,2 + x_3,2 = 1
 R27: - y_2 + x_2,2 <= 0
 R28: x_0,3 + x_2,3 + x_3,3 = 1
 R29: - y_2 + x_2,3 <= 0
 R30: y_0 + y_1 + y_2 + y_3 = 1
 R31: x_0,0 + x_1,0 + x_3,0 = 1
 R32: x_3,0 - y_3 <= 0
 R33: x_0,1 + x_1,1 + x_2,1 = 1
 R34: x_3,1 - y_3 <= 0
 R35: x_3,1 = 0
 R36: x_1,2 + x_2,2 + x_3,2 = 1
 R37: x_3,2 - y_3 <= 0
 R38: x_0,3 + x_2,3 + x_3,3 = 1
 R39: - y_3 + x_3,3 <= 0
Bounds
Binaries
 y_0 x_0,0 x_1,0 x_2,0 x_3,0 y_1 x_0,1 x_1,1 x_2,1 x_3,1 y_2 x_0,2 x_1,2
 x_2,2 x_3,2 y_3 x_0,3 x_1,3 x_2,3 x_3,3
End
